NAME : ClusterId_361 
COMMENT : (Gillet and Johnson) 
TYPE : CVRP 
DIMENSION : 17 
EDGE_WEIGHT_TYPE : EUC_2D 
CAPACITY : 60 
NODE_COORD_SECTION 
361 0 0 
11 -20 20 
16 20 20 
13 0 20 
3 -10 10 
8 10 10 
5 0 10 
10 -20 0 
15 20 0 
2 -10 0 
7 10 0 
1 -10 -10 
6 10 -10 
4 0 -10 
9 -20 -20 
14 20 -20 
12 0 -20 
DEMAND_SECTION 
361 2590
11 8
16 8
13 8
3 12
8 12
5 12
10 8
15 8
2 12
7 12
1 12
6 12
4 12
9 8
14 8
12 8
DEPOT_SECTION 
361
 -1
EOF